6810
1 0 0 0 0 0 1 0 0 1 0 1 1 1 0 0 0 0 0 1 0 0 0 0 1 0 0 0 1 1 
0 0 0 0 0 0 0 11 11 11 11 11 11 11 11 24 19 19 19 19 19 6 6 6 6 6 6 13 9 9 9 9 9 9 0 19 19 24 24 28 29 12 19 28 24 24 12 24 29 28 29 13 13 11 24 13 13 28 12 24 19 19 28 28 13 13 24 13 19 12 